data/solutions/recovery/wellformed/intermediate/binding/wellformed_intermediate_instance41/27.sol
Elapsed time: 100.38
Upper bound: 263132.0
Planning weighted value: 1022846145.0
C[0]=263132.0
C[1]=263121.0
C[2]=263106.0
C[3]=263102.0
C[4]=263055.0
C[5]=263032.0
C[6]=263004.0
C[7]=262998.0
C[8]=262996.0
C[9]=262929.0
C[10]=262894.0
C[11]=0.0
y[0]=9
y[1]=1
y[2]=2
y[3]=4
y[4]=10
y[5]=10
y[6]=9
y[7]=2
y[8]=6
y[9]=8
y[10]=6
y[11]=6
y[12]=9
y[13]=5
y[14]=9
y[15]=10
y[16]=8
y[17]=4
y[18]=2
y[19]=1
y[20]=5
y[21]=6
y[22]=9
y[23]=10
y[24]=0
y[25]=8
y[26]=3
y[27]=2
y[28]=4
y[29]=6
y[30]=10
y[31]=2
y[32]=5
y[33]=2
y[34]=7
y[35]=6
y[36]=6
y[37]=0
y[38]=3
y[39]=2
y[40]=0
y[41]=4
y[42]=6
y[43]=4
y[44]=1
y[45]=5
y[46]=8
y[47]=5
y[48]=9
y[49]=3
y[50]=1
y[51]=3
y[52]=6
y[53]=1
y[54]=0
y[55]=8
y[56]=2
y[57]=10
y[58]=5
y[59]=4
y[60]=10
y[61]=0
y[62]=1
y[63]=8
y[64]=6
y[65]=0
y[66]=0
y[67]=4
y[68]=1
y[69]=1
y[70]=9
y[71]=2
y[72]=4
y[73]=6
y[74]=0
y[75]=1
y[76]=2
y[77]=5
y[78]=8
y[79]=10
y[80]=8
y[81]=7
y[82]=5
y[83]=7
y[84]=3
y[85]=6
y[86]=10
y[87]=2
y[88]=1
y[89]=7
y[90]=6
y[91]=10
y[92]=0
y[93]=0
y[94]=10
y[95]=6
y[96]=6
y[97]=2
y[98]=8
y[99]=8
y[100]=8
y[101]=0
y[102]=4
y[103]=8
y[104]=0
y[105]=5
y[106]=1
y[107]=8
y[108]=0
y[109]=8
y[110]=6
y[111]=2
y[112]=5
y[113]=1
y[114]=0
y[115]=7
y[116]=1
y[117]=4
y[118]=5
y[119]=8
y[120]=10
y[121]=6
y[122]=6
y[123]=10
y[124]=3
y[125]=0
y[126]=1
y[127]=8
y[128]=7
y[129]=3
y[130]=1
y[131]=7
y[132]=4
y[133]=5
y[134]=6
y[135]=3
y[136]=3
y[137]=4
y[138]=7
y[139]=2
y[140]=0
y[141]=3
y[142]=7
y[143]=9
y[144]=3
y[145]=5
y[146]=1
y[147]=2
y[148]=7
y[149]=1
y[150]=4
y[151]=1
y[152]=0
y[153]=4
y[154]=9
y[155]=6
y[156]=10
y[157]=3
y[158]=10
y[159]=6
y[160]=1
y[161]=9
y[162]=2
y[163]=5
y[164]=3
y[165]=4
y[166]=3
y[167]=9
y[168]=6
y[169]=3
y[170]=5
y[171]=7
y[172]=1
y[173]=3
y[174]=3
y[175]=4
y[176]=0
y[177]=5
y[178]=8
y[179]=9
y[180]=9
y[181]=1
y[182]=9
y[183]=3
y[184]=2
y[185]=7
y[186]=3
y[187]=6
y[188]=9
y[189]=0
y[190]=1
y[191]=2
y[192]=10
y[193]=3
y[194]=2
y[195]=1
y[196]=7
y[197]=0
y[198]=3
y[199]=6
y[200]=6
y[201]=6
y[202]=1
y[203]=0
y[204]=9
y[205]=3
y[206]=2
y[207]=1
y[208]=3
y[209]=3
y[210]=3
y[211]=9
y[212]=2
y[213]=7
y[214]=4
y[215]=10
y[216]=5
y[217]=10
y[218]=3
y[219]=0
y[220]=1
y[221]=8
y[222]=10
y[223]=8
y[224]=10
y[225]=10
y[226]=6
y[227]=9
y[228]=1
y[229]=4
y[230]=4
y[231]=1
y[232]=0
y[233]=10
y[234]=8
y[235]=5
y[236]=2
y[237]=2
y[238]=6
y[239]=3
y[240]=7
y[241]=6
y[242]=9
y[243]=4
y[244]=9
y[245]=8
y[246]=8
y[247]=7
y[248]=5
y[249]=1
y[250]=0
y[251]=3
y[252]=9
y[253]=0
y[254]=1
y[255]=10
y[256]=6
y[257]=0
y[258]=7
y[259]=2
y[260]=10
y[261]=7
y[262]=10
y[263]=3
y[264]=9
y[265]=7
y[266]=10
y[267]=10
y[268]=6
y[269]=4
y[270]=1
y[271]=9
y[272]=9
y[273]=4
y[274]=6
y[275]=9
y[276]=4
y[277]=7
y[278]=9
y[279]=4
y[280]=4
y[281]=6
y[282]=8
y[283]=7
y[284]=10
y[285]=5
y[286]=1
y[287]=10
y[288]=7
y[289]=1
y[290]=7
y[291]=0
y[292]=3
y[293]=8
y[294]=10
y[295]=7
y[296]=5
y[297]=7
y[298]=9
y[299]=4
y[300]=9
y[301]=3
y[302]=8
y[303]=10
y[304]=5
y[305]=8
y[306]=6
y[307]=6
y[308]=1
y[309]=2
y[310]=6
y[311]=2
