data/solutions/recovery/wellformed/intermediate/binding/wellformed_intermediate_instance41/27.log

Log started (V12.6.3.0) Fri Apr 20 18:39:29 2018

New value for default parallel thread count: 1

Problem '/tmp/tmpdLzuDE.pyomo.lp' read.
Read time = 0.14 sec. (12.74 ticks)

Problem name         : /tmp/tmpdLzuDE.pyomo.lp
Objective sense      : Minimize
Variables            :    3758  [Nneg: 1,  Binary: 3744,  General Integer: 13]
Objective nonzeros   :       1
Linear constraints   :     650  [Less: 324,  Equal: 326]
  Nonzeros           :  944533
  RHS nonzeros       :     313

Variables            : Min LB: 0.000000         Max UB: 1.000000       
Objective nonzeros   : Min   : 1.000000         Max   : 1.000000       
Linear constraints   :
  Nonzeros           : Min   : 1.000000         Max   : 19298.00       
  RHS nonzeros       : Min   : 1.000000         Max   : 1.000000       
Tried aggregator 2 times.
MIP Presolve eliminated 592 rows and 3350 columns.
Aggregator did 11 substitutions.
Reduced MIP has 47 rows, 397 columns, and 803 nonzeros.
Reduced MIP has 396 binaries, 1 generals, 0 SOSs, and 0 indicators.
Presolve time = 0.04 sec. (58.24 ticks)
Found incumbent of value 605936.000000 after 0.07 sec. (80.20 ticks)
Probing time = 0.00 sec. (0.43 ticks)
Tried aggregator 1 time.
Reduced MIP has 47 rows, 397 columns, and 803 nonzeros.
Reduced MIP has 396 binaries, 1 generals, 0 SOSs, and 0 indicators.
Presolve time = 0.00 sec. (0.65 ticks)
Probing time = 0.00 sec. (0.43 ticks)
Clique table members: 36.
MIP emphasis: balance optimality and feasibility.
MIP search method: dynamic search.
Parallel mode: none, using 1 thread.
Root relaxation solution time = 0.00 sec. (0.78 ticks)

        Nodes                                         Cuts/
   Node  Left     Objective  IInf  Best Integer    Best Bound    ItCnt     Gap

*     0+    0                       605936.0000   247726.0000            59.12%
      0     0   263033.5455    20   605936.0000   263033.5455       75   56.59%
*     0+    0                       282213.0000   263033.5455             6.80%
      0     0   263034.0000    20   282213.0000      Fract: 5       88    6.80%
*     0+    0                       282132.0000   263034.0000             6.77%
      0     0   263034.0000    22   282132.0000      Cuts: 22      129    6.77%
*     0+    0                       281557.0000   263034.0000             6.58%
*     0+    0                       270433.0000   263034.0000             2.74%
*     0+    0                       266597.0000   263034.0000             1.34%
*     0+    0                       266470.0000   263034.0000             1.29%
      0     2   263034.0000    19   266470.0000   263034.0000      129    1.29%
Elapsed time = 0.10 sec. (100.56 ticks, tree = 0.01 MB, solutions = 7)
*    40+   40                       264730.0000   263034.0000             0.64%
*   100+   98                       264722.0000   263034.0000             0.64%
*   106    99      integral     0   264691.0000   263034.0000      559    0.63%
*   140+  130                       264678.0000   263034.0000             0.62%
*   150+  140                       264486.0000   263034.0000             0.55%
*   150+  140                       264450.0000   263034.0000             0.54%
*   160+  143                       264338.0000   263034.0000             0.49%
*   220+  186                       264173.0000   263034.0000             0.43%
*   800+  691                       264157.0000   263034.0000             0.43%
*   937+  784                       264107.0000   263034.0000             0.41%
*   938+  783                       264000.0000   263034.0000             0.37%
*   938+  779                       263955.0000   263034.0000             0.35%
*   939+  520                       263863.0000   263034.0000             0.31%
   1039   578   263096.0000    16   263863.0000   263034.0000     3679    0.31%
   1040   579   263096.0000    16   263863.0000   263034.0000     3680    0.31%
   1041   573        cutoff         263863.0000   263034.0000     3681    0.31%
   1042   573   263311.0000    13   263863.0000   263034.0000     3685    0.31%
   1043   573   263362.2500    14   263863.0000   263034.0000     3687    0.31%
   1044   573   263363.0000    13   263863.0000   263034.0000     3688    0.31%
   1045   573   263644.8571    13   263863.0000   263034.0000     3694    0.31%
   1046   574   263363.0000    13   263863.0000   263034.0000     3697    0.31%
   1047   575   263363.0000    12   263863.0000   263034.0000     3702    0.31%
*  1139+  398                       263711.0000   263034.0000             0.26%
*  1139+  307                       263679.0000   263034.0000             0.24%
*  1339+  290                       263528.0000   263034.0000             0.19%
*  1539+  317                       263384.0000   263034.0000             0.13%
   1639   392   263034.0000    22   263384.0000   263034.0000     5483    0.13%
Elapsed time = 1.03 sec. (1124.71 ticks, tree = 0.15 MB, solutions = 24)
  11584  8411        cutoff         263384.0000   263034.0000    29808    0.13%
  11585  8410        cutoff         263384.0000   263034.0000    29810    0.13%
  11586  8411   263064.0000    14   263384.0000   263034.0000    29813    0.13%
  11587  8412   263072.1250    13   263384.0000   263034.0000    29816    0.13%
  11588  8413   263072.1250    15   263384.0000   263034.0000    29819    0.13%
  11589  8414   263072.1250    14   263384.0000   263034.0000    29821    0.13%
  11590  8415   263072.1250    14   263384.0000   263034.0000    29825    0.13%
  11591  8416   263072.1250    14   263384.0000   263034.0000    29826    0.13%
  11592  8417   263072.1250    13   263384.0000   263034.0000    29828    0.13%
  11593  8418   263072.1250    13   263384.0000   263034.0000    29829    0.13%
Elapsed time = 1.91 sec. (2080.06 ticks, tree = 3.43 MB, solutions = 24)
  25298 19216   263060.1111    19   263384.0000   263034.0000    59130    0.13%
  25299 19217   263060.1111    19   263384.0000   263034.0000    59131    0.13%
  25300 19218   263060.1111    19   263384.0000   263034.0000    59132    0.13%
  25301 19219   263060.1111    19   263384.0000   263034.0000    59133    0.13%
  25302 19220   263093.6250    17   263384.0000   263034.0000    59134    0.13%
  25303 19221   263093.6250    17   263384.0000   263034.0000    59136    0.13%
  25304 19222   263093.6250    16   263384.0000   263034.0000    59137    0.13%
  25305 19223   263093.6250    13   263384.0000   263034.0000    59140    0.13%
  25306 19224   263093.6250    14   263384.0000   263034.0000    59141    0.13%
  25307 19225   263206.5714    13   263384.0000   263034.0000    59150    0.13%
Elapsed time = 2.82 sec. (3034.40 ticks, tree = 7.77 MB, solutions = 24)
  37211 28867        cutoff         263384.0000   263034.0000    88510    0.13%
  37212 28868   263092.1444    19   263384.0000   263034.0000    88511    0.13%
  37213 28869   263093.8761    19   263384.0000   263034.0000    88513    0.13%
  37214 28870   263144.1667    13   263384.0000   263034.0000    88514    0.13%
  37215 28871   263144.1667    14   263384.0000   263034.0000    88519    0.13%
  37216 28872   263144.1667    13   263384.0000   263034.0000    88523    0.13%
  37217 28873   263144.1667    14   263384.0000   263034.0000    88525    0.13%
  37218 28874   263144.1667    14   263384.0000   263034.0000    88526    0.13%
  37219 28874   263144.1667    14   263384.0000   263034.0000    88527    0.13%
  37220 28873        cutoff         263384.0000   263034.0000    88528    0.13%
Elapsed time = 3.75 sec. (3988.70 ticks, tree = 11.22 MB, solutions = 24)
  49387 38998   263145.0000    16   263384.0000   263034.0000   121659    0.13%
  49388 38999   263145.0000    18   263384.0000   263034.0000   121662    0.13%
  49389 39000   263145.0000    18   263384.0000   263034.0000   121668    0.13%
  49390 39001   263145.0000    18   263384.0000   263034.0000   121674    0.13%
  49391 39002   263145.0000    19   263384.0000   263034.0000   121675    0.13%
  49392 39003   263145.0000    19   263384.0000   263034.0000   121676    0.13%
  49393 39004   263145.0000    19   263384.0000   263034.0000   121677    0.13%
  49394 39005   263145.0000    20   263384.0000   263034.0000   121682    0.13%
  49395 39004        cutoff         263384.0000   263034.0000   121684    0.13%
  49396 39003        cutoff         263384.0000   263034.0000   121687    0.13%
Elapsed time = 4.64 sec. (4943.02 ticks, tree = 15.80 MB, solutions = 24)
  59944 47178   263034.0000    17   263384.0000   263034.0000   154345    0.13%
  59945 47179   263034.0000    15   263384.0000   263034.0000   154347    0.13%
  59946 47180   263034.0000    15   263384.0000   263034.0000   154348    0.13%
  59947 47181   263034.0000    15   263384.0000   263034.0000   154349    0.13%
  59948 47182   263034.0000    15   263384.0000   263034.0000   154350    0.13%
  59949 47183   263034.0000    19   263384.0000   263034.0000   154357    0.13%
  59950 47182        cutoff         263384.0000   263034.0000   154367    0.13%
  59951 47181        cutoff         263384.0000   263034.0000   154372    0.13%
  59952 47182   263320.8333    10   263384.0000   263034.0000   154379    0.13%
  59953 47183   263320.8333    10   263384.0000   263034.0000   154381    0.13%
Elapsed time = 5.52 sec. (5898.26 ticks, tree = 18.79 MB, solutions = 24)
  71203 55567   263173.0000    12   263384.0000   263034.0000   186214    0.13%
  71204 55568   263277.0000     8   263384.0000   263034.0000   186218    0.13%
  71205 55569   263277.0000     8   263384.0000   263034.0000   186219    0.13%
  71206 55570   263277.0000     8   263384.0000   263034.0000   186220    0.13%
  71207 55571   263292.6667     5   263384.0000   263034.0000   186224    0.13%
  71208 55572   263292.6667     5   263384.0000   263034.0000   186225    0.13%
  71209 55573   263292.6667     5   263384.0000   263034.0000   186226    0.13%
  71210 55574   263292.6667     5   263384.0000   263034.0000   186229    0.13%
  71211 55575   263292.6667     5   263384.0000   263034.0000   186230    0.13%
  71212 55576   263292.6667     5   263384.0000   263034.0000   186231    0.13%
Elapsed time = 6.39 sec. (6852.53 ticks, tree = 21.91 MB, solutions = 24)
  82484 63503   263049.0000    14   263384.0000   263034.0000   215513    0.13%
  82485 63504   263049.0000    13   263384.0000   263034.0000   215516    0.13%
  82486 63505   263049.0000    13   263384.0000   263034.0000   215517    0.13%
  82487 63506   263049.0000    13   263384.0000   263034.0000   215519    0.13%
  82488 63507   263062.0000    11   263384.0000   263034.0000   215521    0.13%
  82489 63508   263062.0000    11   263384.0000   263034.0000   215524    0.13%
  82490 63509   263062.0000     9   263384.0000   263034.0000   215526    0.13%
  82491 63510   263062.0000    10   263384.0000   263034.0000   215532    0.13%
  82492 63511   263062.0000    10   263384.0000   263034.0000   215533    0.13%
  82493 63512   263062.0000     9   263384.0000   263034.0000   215539    0.13%
Elapsed time = 7.25 sec. (7807.09 ticks, tree = 24.93 MB, solutions = 24)
* 83456 59475      integral     0   263365.0000   263034.0000   218202    0.13%
* 83632 54969      integral     0   263340.0000   263034.0000   218756    0.12%
* 89559 40481      integral     0   263254.0000   263034.0000   235583    0.08%
  93702 43056   263229.5000    16   263254.0000   263034.0000   247881    0.08%
  93703 43056   263229.5000    16   263254.0000   263034.0000   247884    0.08%
  93704 43057   263229.5000    14   263254.0000   263034.0000   247886    0.08%
  93705 43058   263229.5000    13   263254.0000   263034.0000   247887    0.08%
  93706 43057        cutoff         263254.0000   263034.0000   247890    0.08%
  93707 43056        cutoff         263254.0000   263034.0000   247893    0.08%
  93708 43055        cutoff         263254.0000   263034.0000   247895    0.08%
  93709 43054        cutoff         263254.0000   263034.0000   247910    0.08%
  93710 43055   263188.5714    12   263254.0000   263034.0000   247926    0.08%
  93711 43056   263188.5714    13   263254.0000   263034.0000   247927    0.08%
Elapsed time = 8.13 sec. (8762.95 ticks, tree = 17.42 MB, solutions = 27)
* 94012+34756                       263218.0000   263034.0000             0.07%
 103487 41193        cutoff         263218.0000   263034.0000   279229    0.07%
 103488 41192        cutoff         263218.0000   263034.0000   279248    0.07%
 103489 41193   263034.0000    21   263218.0000   263034.0000   279263    0.07%
 103490 41194   263112.1429    17   263218.0000   263034.0000   279285    0.07%
 103491 41195   263112.1429    18   263218.0000   263034.0000   279289    0.07%
 103492 41195   263147.5000    14   263218.0000   263034.0000   279291    0.07%
 103493 41194        cutoff         263218.0000   263034.0000   279294    0.07%
 103494 41195   263034.0000    22   263218.0000   263034.0000   279313    0.07%
 103495 41196   263070.8571    21   263218.0000   263034.0000   279317    0.07%
 127761 54877   263034.0000    18   263218.0000   263034.0000   359575    0.07%
Elapsed time = 11.79 sec. (12577.75 ticks, tree = 21.76 MB, solutions = 28)
*156267 66420      integral     0   263209.0000   263034.0000   445600    0.07%
 161062 69515   263182.2500    14   263209.0000   263034.0000   460849    0.07%
 161063 69516   263182.2500    15   263209.0000   263034.0000   460852    0.07%
 161064 69517   263182.2500    15   263209.0000   263034.0000   460853    0.07%
 161065 69518   263182.2500    15   263209.0000   263034.0000   460854    0.07%
 161066 69519   263182.2500    14   263209.0000   263034.0000   460855    0.07%
 161067 69520   263182.2500    15   263209.0000   263034.0000   460856    0.07%
 161068 69521   263182.2500    15   263209.0000   263034.0000   460858    0.07%
 161069 69522   263182.2500    15   263209.0000   263034.0000   460859    0.07%
 161070 69523   263182.2500    16   263209.0000   263034.0000   460865    0.07%
 161071 69524   263182.2500    16   263209.0000   263034.0000   460866    0.07%
Elapsed time = 15.42 sec. (16394.56 ticks, tree = 29.08 MB, solutions = 29)
 192763 90757   263034.0000    19   263209.0000   263034.0000   579673    0.07%
 192764 90758   263034.0000    17   263209.0000   263034.0000   579674    0.07%
 192765 90759   263034.0000    17   263209.0000   263034.0000   579675    0.07%
 192766 90760   263034.0000    17   263209.0000   263034.0000   579679    0.07%
 192767 90760   263174.0000    14   263209.0000   263034.0000   579695    0.07%
 192768 90761   263174.0000    13   263209.0000   263034.0000   579697    0.07%
 192769 90761   263174.0000    17   263209.0000   263034.0000   579707    0.07%
 192770 90762   263174.0000    16   263209.0000   263034.0000   579708    0.07%
 192771 90763   263174.0000    20   263209.0000   263034.0000   579711    0.07%
 192772 90764   263174.0000    18   263209.0000   263034.0000   579712    0.07%
Elapsed time = 19.02 sec. (20210.57 ticks, tree = 36.79 MB, solutions = 29)
 222646 110887        cutoff         263209.0000   263034.0000   710223    0.07%
 222647 110886        cutoff         263209.0000   263034.0000   710229    0.07%
 222648 110885        cutoff         263209.0000   263034.0000   710243    0.07%
 222649 110884        cutoff         263209.0000   263034.0000   710252    0.07%
 222650 110883        cutoff         263209.0000   263034.0000   710258    0.07%
 222651 110882    infeasible         263209.0000   263034.0000   710258    0.07%
 222652 110883   263034.0000    15   263209.0000   263034.0000   710267    0.07%
 222653 110884   263034.0000    15   263209.0000   263034.0000   710269    0.07%
 222654 110885   263034.0000    17   263209.0000   263034.0000   710275    0.07%
 222655 110886   263034.0000    15   263209.0000   263034.0000   710276    0.07%
Elapsed time = 22.60 sec. (24028.29 ticks, tree = 44.12 MB, solutions = 29)
 250003 127396        cutoff         263209.0000   263034.0000   827350    0.07%
 250004 127397   263034.0000    17   263209.0000   263034.0000   827362    0.07%
 250005 127398   263034.0000    18   263209.0000   263034.0000   827365    0.07%
 250006 127399   263034.0000    17   263209.0000   263034.0000   827366    0.07%
 250007 127400   263130.4727    18   263209.0000   263034.0000   827379    0.07%
 250008 127401   263132.2510    18   263209.0000   263034.0000   827380    0.07%
 250009 127402   263132.2641    18   263209.0000   263034.0000   827381    0.07%
 250010 127403   263132.6541    20   263209.0000   263034.0000   827382    0.07%
 250011 127403   263158.3674    19   263209.0000   263034.0000   827385    0.07%
 250012 127402        cutoff         263209.0000   263034.0000   827386    0.07%
Elapsed time = 26.19 sec. (27845.89 ticks, tree = 50.20 MB, solutions = 29)
*269339+126919                       263192.0000   263034.0000             0.06%
*269439+99115                       263164.0000   263034.0000             0.05%
 273703 101403   263095.6667    16   263164.0000   263034.0000   926318    0.05%
 273704 101404   263095.6667    16   263164.0000   263034.0000   926319    0.05%
 273705 101405   263095.6667    16   263164.0000   263034.0000   926320    0.05%
 273706 101406   263095.6667    18   263164.0000   263034.0000   926321    0.05%
 273707 101407   263095.6667    16   263164.0000   263034.0000   926322    0.05%
 273708 101408   263095.6667    16   263164.0000   263034.0000   926323    0.05%
 273709 101409   263095.6667    15   263164.0000   263034.0000   926324    0.05%
 273710 101410   263095.6667    16   263164.0000   263034.0000   926325    0.05%
 273711 101411   263095.6667    16   263164.0000   263034.0000   926327    0.05%
 273712 101412   263095.6667    15   263164.0000   263034.0000   926332    0.05%
Elapsed time = 29.87 sec. (31661.04 ticks, tree = 42.15 MB, solutions = 31)
 299502 115584   263095.6667    18   263164.0000   263034.0000  1032010    0.05%
 299503 115585   263095.6667    18   263164.0000   263034.0000  1032016    0.05%
 299504 115586   263095.6667    19   263164.0000   263034.0000  1032018    0.05%
 299505 115587   263095.6667    17   263164.0000   263034.0000  1032019    0.05%
 299506 115588   263095.6667    18   263164.0000   263034.0000  1032020    0.05%
 299507 115589   263095.6667    17   263164.0000   263034.0000  1032021    0.05%
 299508 115590   263095.6667    16   263164.0000   263034.0000  1032022    0.05%
 299509 115591   263123.2500    16   263164.0000   263034.0000  1032025    0.05%
 299510 115592   263123.2500    17   263164.0000   263034.0000  1032038    0.05%
 299511 115593   263123.2500    17   263164.0000   263034.0000  1032040    0.05%
Elapsed time = 33.53 sec. (35476.37 ticks, tree = 47.41 MB, solutions = 31)
 325307 126070   263034.0000    16   263164.0000   263034.0000  1145997    0.05%
 325308 126071   263034.0000    17   263164.0000   263034.0000  1146001    0.05%
 325309 126072   263034.0000    15   263164.0000   263034.0000  1146003    0.05%
 325310 126073   263034.0000    18   263164.0000   263034.0000  1146019    0.05%
 325311 126074   263034.0000    19   263164.0000   263034.0000  1146024    0.05%
 325312 126075   263034.0000    16   263164.0000   263034.0000  1146025    0.05%
 325313 126076   263034.0000    16   263164.0000   263034.0000  1146026    0.05%
 325314 126075        cutoff         263164.0000   263034.0000  1146032    0.05%
 325315 126074        cutoff         263164.0000   263034.0000  1146040    0.05%
 325316 126073        cutoff         263164.0000   263034.0000  1146049    0.05%
Elapsed time = 37.05 sec. (39292.87 ticks, tree = 51.34 MB, solutions = 31)
 352274 137452   263106.7143    14   263164.0000   263034.0000  1263819    0.05%
 352275 137451    infeasible         263164.0000   263034.0000  1263819    0.05%
 352276 137450        cutoff         263164.0000   263034.0000  1263822    0.05%
 352277 137451   263130.7778    16   263164.0000   263034.0000  1263833    0.05%
 352278 137452   263130.7778    17   263164.0000   263034.0000  1263835    0.05%
 352279 137453   263130.7778    17   263164.0000   263034.0000  1263840    0.05%
 352280 137454   263130.7778    16   263164.0000   263034.0000  1263841    0.05%
 352281 137455   263130.7778    15   263164.0000   263034.0000  1263844    0.05%
 352282 137454    infeasible         263164.0000   263034.0000  1263844    0.05%
 352283 137455   263130.7778    15   263164.0000   263034.0000  1263846    0.05%
Elapsed time = 40.70 sec. (43108.98 ticks, tree = 55.61 MB, solutions = 31)
 380150 153780        cutoff         263164.0000   263034.0000  1374008    0.05%
 380151 153779    infeasible         263164.0000   263034.0000  1374008    0.05%
 380152 153778        cutoff         263164.0000   263034.0000  1374017    0.05%
 380153 153777        cutoff         263164.0000   263034.0000  1374020    0.05%
 380154 153778   263102.1111    17   263164.0000   263034.0000  1374024    0.05%
 380155 153778   263102.1111    20   263164.0000   263034.0000  1374035    0.05%
 380156 153779   263102.1111    19   263164.0000   263034.0000  1374036    0.05%
 380157 153778        cutoff         263164.0000   263034.0000  1374039    0.05%
 380158 153777    infeasible         263164.0000   263034.0000  1374039    0.05%
 380159 153776        cutoff         263164.0000   263034.0000  1374048    0.05%
Elapsed time = 44.29 sec. (46926.06 ticks, tree = 61.53 MB, solutions = 31)
 405545 162760   263146.1111    17   263164.0000   263034.0000  1486959    0.05%
 405546 162761   263146.1111    17   263164.0000   263034.0000  1486960    0.05%
 405547 162762   263146.1111    16   263164.0000   263034.0000  1486961    0.05%
 405548 162763   263146.1111    17   263164.0000   263034.0000  1486965    0.05%
 405549 162762        cutoff         263164.0000   263034.0000  1486966    0.05%
 405550 162761        cutoff         263164.0000   263034.0000  1486969    0.05%
 405551 162762   263083.0000    15   263164.0000   263034.0000  1486974    0.05%
 405552 162763   263120.1250    16   263164.0000   263034.0000  1486981    0.05%
 405553 162764   263120.1250    15   263164.0000   263034.0000  1486983    0.05%
 405554 162765   263120.1250    15   263164.0000   263034.0000  1486984    0.05%
Elapsed time = 47.80 sec. (50742.15 ticks, tree = 66.00 MB, solutions = 31)
 431439 174628   263040.8000    16   263164.0000   263034.0000  1594177    0.05%
 431440 174629   263040.8000    16   263164.0000   263034.0000  1594178    0.05%
 431441 174630   263040.8000    17   263164.0000   263034.0000  1594182    0.05%
 431442 174629    infeasible         263164.0000   263034.0000  1594182    0.05%
 431443 174630   263040.8000    20   263164.0000   263034.0000  1594189    0.05%
 431444 174631   263040.8000    19   263164.0000   263034.0000  1594193    0.05%
 431445 174632   263040.8000    19   263164.0000   263034.0000  1594194    0.05%
 431446 174633   263040.8000    19   263164.0000   263034.0000  1594195    0.05%
 431447 174634   263040.8000    19   263164.0000   263034.0000  1594196    0.05%
 431448 174635   263040.8000    18   263164.0000   263034.0000  1594197    0.05%
Elapsed time = 51.36 sec. (54571.38 ticks, tree = 70.36 MB, solutions = 31)
*461239+175918                       263150.0000   263034.0000             0.04%
 465102 178774   263102.6667    15   263150.0000   263034.0000  1698555    0.04%
 465103 178775   263102.6667    15   263150.0000   263034.0000  1698558    0.04%
 465104 178776   263102.6667    16   263150.0000   263034.0000  1698561    0.04%
 465105 178777   263102.6667    16   263150.0000   263034.0000  1698562    0.04%
 465106 178778   263102.6667    16   263150.0000   263034.0000  1698563    0.04%
 465107 178779   263102.6667    16   263150.0000   263034.0000  1698564    0.04%
 465108 178778        cutoff         263150.0000   263034.0000  1698568    0.04%
 465109 178779   263102.6667    16   263150.0000   263034.0000  1698570    0.04%
 465110 178780   263102.6667    16   263150.0000   263034.0000  1698572    0.04%
 465111 178781   263102.6667    16   263150.0000   263034.0000  1698575    0.04%
Elapsed time = 54.93 sec. (58386.66 ticks, tree = 72.97 MB, solutions = 32)
 507589 209536   263073.0000    18   263150.0000   263034.0000  1820548    0.04%
 507590 209537   263073.0000    18   263150.0000   263034.0000  1820549    0.04%
 507591 209537   263073.0000    18   263150.0000   263034.0000  1820550    0.04%
 507592 209538   263134.5556    17   263150.0000   263034.0000  1820552    0.04%
 507593 209537        cutoff         263150.0000   263034.0000  1820554    0.04%
 507594 209538   263134.5556    18   263150.0000   263034.0000  1820558    0.04%
 507595 209539   263134.5556    17   263150.0000   263034.0000  1820562    0.04%
 507596 209538        cutoff         263150.0000   263034.0000  1820564    0.04%
 507597 209537        cutoff         263150.0000   263034.0000  1820565    0.04%
 507598 209536        cutoff         263150.0000   263034.0000  1820571    0.04%
Elapsed time = 58.47 sec. (62202.19 ticks, tree = 83.96 MB, solutions = 32)
 542719 232749   263109.5000    17   263150.0000   263034.0000  1922505    0.04%
 542720 232750   263109.5000    18   263150.0000   263034.0000  1922506    0.04%
 542721 232751   263109.5000    18   263150.0000   263034.0000  1922507    0.04%
 542722 232752   263109.5000    18   263150.0000   263034.0000  1922508    0.04%
 542723 232753   263109.5000    18   263150.0000   263034.0000  1922509    0.04%
 542724 232754   263109.5000    18   263150.0000   263034.0000  1922510    0.04%
 542725 232755   263109.5000    18   263150.0000   263034.0000  1922511    0.04%
 542726 232756   263109.5000    18   263150.0000   263034.0000  1922516    0.04%
 542727 232757   263109.5000    17   263150.0000   263034.0000  1922521    0.04%
 542728 232758   263109.5000    17   263150.0000   263034.0000  1922522    0.04%
Elapsed time = 62.06 sec. (66017.44 ticks, tree = 93.89 MB, solutions = 32)
 577160 254056        cutoff         263150.0000   263034.0000  2019626    0.04%
 577161 254057   263034.0000    18   263150.0000   263034.0000  2019631    0.04%
 577162 254058   263034.0000    21   263150.0000   263034.0000  2019638    0.04%
 577163 254059   263083.6667    19   263150.0000   263034.0000  2019647    0.04%
 577164 254060   263083.6667    17   263150.0000   263034.0000  2019648    0.04%
 577165 254061   263083.6667    17   263150.0000   263034.0000  2019650    0.04%
 577166 254062   263083.6667    15   263150.0000   263034.0000  2019651    0.04%
 577167 254063   263083.6667    18   263150.0000   263034.0000  2019656    0.04%
 577168 254064   263083.6667    17   263150.0000   263034.0000  2019657    0.04%
 577169 254065   263083.6667    15   263150.0000   263034.0000  2019658    0.04%
Elapsed time = 65.65 sec. (69832.79 ticks, tree = 101.56 MB, solutions = 32)
 613479 278934   263104.6667    15   263150.0000   263034.0000  2123231    0.04%
 613480 278935   263104.6667    15   263150.0000   263034.0000  2123232    0.04%
 613481 278935   263104.6667    18   263150.0000   263034.0000  2123236    0.04%
 613482 278934        cutoff         263150.0000   263034.0000  2123238    0.04%
 613483 278935   263104.6667    16   263150.0000   263034.0000  2123239    0.04%
 613484 278936   263104.6667    16   263150.0000   263034.0000  2123240    0.04%
 613485 278937   263104.6667    16   263150.0000   263034.0000  2123241    0.04%
 613486 278938   263104.6667    16   263150.0000   263034.0000  2123242    0.04%
 613487 278939   263104.6667    17   263150.0000   263034.0000  2123247    0.04%
 613488 278939   263104.6667    16   263150.0000   263034.0000  2123249    0.04%
Elapsed time = 69.11 sec. (73648.11 ticks, tree = 112.37 MB, solutions = 32)
 653958 308924   263034.0000    20   263150.0000   263034.0000  2234366    0.04%
 653959 308925   263034.0000    20   263150.0000   263034.0000  2234367    0.04%
 653960 308926   263034.0000    18   263150.0000   263034.0000  2234369    0.04%
 653961 308927   263034.0000    18   263150.0000   263034.0000  2234370    0.04%
 653962 308928   263034.0000    19   263150.0000   263034.0000  2234373    0.04%
 653963 308929   263034.0000    20   263150.0000   263034.0000  2234376    0.04%
 653964 308930   263034.0000    20   263150.0000   263034.0000  2234377    0.04%
 653965 308931   263034.0000    20   263150.0000   263034.0000  2234378    0.04%
 653966 308932   263034.0000    18   263150.0000   263034.0000  2234380    0.04%
 653967 308933   263034.0000    20   263150.0000   263034.0000  2234383    0.04%
Elapsed time = 72.65 sec. (77463.29 ticks, tree = 123.22 MB, solutions = 32)
 685821 324866   263034.0000    18   263150.0000   263034.0000  2331602    0.04%
 685822 324865        cutoff         263150.0000   263034.0000  2331604    0.04%
 685823 324866   263034.0000    18   263150.0000   263034.0000  2331609    0.04%
 685824 324865        cutoff         263150.0000   263034.0000  2331610    0.04%
 685825 324864        cutoff         263150.0000   263034.0000  2331611    0.04%
 685826 324865   263034.0000    18   263150.0000   263034.0000  2331629    0.04%
 685827 324866   263082.7500    15   263150.0000   263034.0000  2331637    0.04%
 685828 324867   263105.5714    13   263150.0000   263034.0000  2331639    0.04%
 685829 324868   263105.5714    13   263150.0000   263034.0000  2331640    0.04%
 685830 324869   263105.5714    14   263150.0000   263034.0000  2331641    0.04%
Elapsed time = 76.21 sec. (81280.42 ticks, tree = 129.11 MB, solutions = 32)
 713664 340678   263044.6000    18   263150.0000   263034.0000  2419571    0.04%
 713665 340677        cutoff         263150.0000   263034.0000  2419575    0.04%
 713666 340676        cutoff         263150.0000   263034.0000  2419577    0.04%
 713667 340677   263058.6117    20   263150.0000   263034.0000  2419593    0.04%
 713668 340678   263058.6117    20   263150.0000   263034.0000  2419594    0.04%
 713669 340679   263058.6117    20   263150.0000   263034.0000  2419595    0.04%
 713670 340680   263073.2898    18   263150.0000   263034.0000  2419597    0.04%
 713671 340681   263073.2898    18   263150.0000   263034.0000  2419601    0.04%
 713672 340682   263073.2898    19   263150.0000   263034.0000  2419602    0.04%
 713673 340683   263073.2898    19   263150.0000   263034.0000  2419608    0.04%
Elapsed time = 79.82 sec. (85096.74 ticks, tree = 137.25 MB, solutions = 32)
 744952 359060   263065.0000    14   263150.0000   263034.0000  2519093    0.04%
 744953 359061   263065.0000    15   263150.0000   263034.0000  2519095    0.04%
 744954 359062   263065.0000    15   263150.0000   263034.0000  2519096    0.04%
 744955 359063   263065.0000    15   263150.0000   263034.0000  2519097    0.04%
 744956 359064   263065.0000    15   263150.0000   263034.0000  2519099    0.04%
 744957 359065   263065.0000    16   263150.0000   263034.0000  2519101    0.04%
 744958 359066   263065.0000    16   263150.0000   263034.0000  2519102    0.04%
 744959 359067   263065.0000    16   263150.0000   263034.0000  2519103    0.04%
 744960 359068   263065.0000    15   263150.0000   263034.0000  2519105    0.04%
 744961 359069   263065.0000    16   263150.0000   263034.0000  2519106    0.04%
Elapsed time = 83.41 sec. (88912.06 ticks, tree = 144.10 MB, solutions = 32)
 776319 376714   263059.1000    19   263150.0000   263034.0000  2613056    0.04%
 776320 376715   263063.2222    17   263150.0000   263034.0000  2613058    0.04%
 776321 376716   263063.2222    17   263150.0000   263034.0000  2613059    0.04%
 776322 376717   263063.2222    16   263150.0000   263034.0000  2613064    0.04%
 776323 376718   263063.2222    19   263150.0000   263034.0000  2613072    0.04%
 776324 376719   263063.2222    16   263150.0000   263034.0000  2613073    0.04%
 776325 376720   263063.2222    17   263150.0000   263034.0000  2613074    0.04%
 776326 376721   263063.2222    16   263150.0000   263034.0000  2613075    0.04%
 776327 376722   263063.2222    17   263150.0000   263034.0000  2613079    0.04%
 776328 376723   263063.2222    16   263150.0000   263034.0000  2613080    0.04%
Elapsed time = 87.18 sec. (92727.40 ticks, tree = 150.65 MB, solutions = 32)
*805339+349752                       263137.0000   263034.0000             0.04%
 806039 350285   263112.7778    15   263137.0000   263034.0000  2694474    0.04%
 806040 350286   263112.7778    15   263137.0000   263034.0000  2694475    0.04%
 806041 350287   263112.7778    15   263137.0000   263034.0000  2694476    0.04%
 806042 350288   263112.7778    15   263137.0000   263034.0000  2694477    0.04%
 806043 350289   263112.7778    15   263137.0000   263034.0000  2694478    0.04%
 806044 350290   263112.7778    14   263137.0000   263034.0000  2694479    0.04%
 806045 350291   263112.7778    15   263137.0000   263034.0000  2694480    0.04%
 806046 350292   263112.7778    15   263137.0000   263034.0000  2694481    0.04%
 806047 350293   263112.7778    15   263137.0000   263034.0000  2694482    0.04%
 806048 350292        cutoff         263137.0000   263034.0000  2694484    0.04%
Elapsed time = 90.86 sec. (96574.84 ticks, tree = 143.50 MB, solutions = 33)
*806839+334890                       263132.0000   263034.0000             0.04%
 831217 349043   263034.0000    17   263132.0000   263034.0000  2765708    0.04%
 831218 349044   263034.0000    20   263132.0000   263034.0000  2765713    0.04%
 831219 349045   263094.1429    13   263132.0000   263034.0000  2765721    0.04%
 831220 349046   263106.0000    11   263132.0000   263034.0000  2765728    0.04%
 831221 349047   263106.0000    11   263132.0000   263034.0000  2765730    0.04%
 831222 349048   263106.0000    11   263132.0000   263034.0000  2765731    0.04%
 831223 349049   263106.0000    10   263132.0000   263034.0000  2765732    0.04%
 831224 349050   263106.0000    11   263132.0000   263034.0000  2765734    0.04%
 831225 349051   263106.0000    11   263132.0000   263034.0000  2765736    0.04%
 831226 349052   263106.0000    11   263132.0000   263034.0000  2765737    0.04%
Elapsed time = 94.46 sec. (100390.78 ticks, tree = 142.88 MB, solutions = 34)
 867026 367661   263073.7000    18   263132.0000   263034.0000  2872532    0.04%
 867027 367662   263102.6667    16   263132.0000   263034.0000  2872535    0.04%
 867028 367663   263102.6667    15   263132.0000   263034.0000  2872536    0.04%
 867029 367664   263102.6667    15   263132.0000   263034.0000  2872538    0.04%
 867030 367665   263102.6667    16   263132.0000   263034.0000  2872539    0.04%
 867031 367666   263102.6667    17   263132.0000   263034.0000  2872541    0.04%
 867032 367667   263102.6667    17   263132.0000   263034.0000  2872543    0.04%
 867033 367668   263102.6667    17   263132.0000   263034.0000  2872545    0.04%
 867034 367669   263102.6667    17   263132.0000   263034.0000  2872546    0.04%
 867035 367670   263102.6667    16   263132.0000   263034.0000  2872549    0.04%
Elapsed time = 98.02 sec. (104206.40 ticks, tree = 149.83 MB, solutions = 34)

Cover cuts applied:  10
Mixed integer rounding cuts applied:  21

Root node processing (before b&c):
  Real time             =    0.10 sec. (101.43 ticks)
Sequential b&c:
  Real time             =   99.91 sec. (106339.60 ticks)
                          ------------
Total (root+branch&cut) =  100.00 sec. (106441.03 ticks)

Solution pool: 34 solutions saved.

MIP - Time limit exceeded, integer feasible:  Objective =  2.6313200000e+05
Current MIP best bound =  2.6303400000e+05 (gap = 98, 0.04%)
Solution time =  100.00 sec.  Iterations = 2930141  Nodes = 886115 (379589)
Deterministic time = 106441.04 ticks  (1064.40 ticks/sec)


Incumbent solution written to file '/tmp/tmpN0jr3Z.cplex.sol'.
